10  5
 1  3  4  8  2  8  3  3  0  8   2 149   5
 1  6  0  6  2 11  4 10  3  4  12 150  10
 4  6  1  6  2 14  3  8  0  5   1 158   5
 1  5  0  9  2 12  3  8  4  3   5 161   5
 1  4  3  7  2  9  4  6  0  8  11 154   5
 4  3  1  6  2 15  3  9  0  6   4 149  10
 0  8  4  3  2 11  1  8  3  3   7 161   5
 3  9  0 10  2 12  4  8  1  9   3 155   5
 3 10  0  8  2  8  4  5  1  6   2 162   5
 3  9  4  8  2 16  1 11  0 11   4 153   5
